33D32945 STP File, STP Format Version 1.0

SECTION Comment
Name "i640-103-PCST"
Creator "Indaco Biazzo" 
Remark "derived from Incidence graph by Cees Duin"
END

SECTION Graph
Nodes 640
Edges 960
E 1 24 301.000000
E 1 27 194.000000
E 1 74 194.000000
E 1 246 202.000000
E 1 271 206.000000
E 1 360 201.000000
E 1 368 199.000000
E 1 385 189.000000
E 2 395 203.000000
E 2 457 204.000000
E 2 505 195.000000
E 3 13 302.000000
E 3 99 181.000000
E 3 429 200.000000
E 3 449 201.000000
E 4 9 295.000000
E 4 52 202.000000
E 4 57 201.000000
E 5 333 208.000000
E 5 615 197.000000
E 6 339 190.000000
E 6 606 203.000000
E 7 27 199.000000
E 7 63 206.000000
E 7 174 198.000000
E 7 492 193.000000
E 7 510 192.000000
E 7 535 209.000000
E 7 598 196.000000
E 8 157 204.000000
E 8 192 207.000000
E 9 19 298.000000
E 9 99 197.000000
E 9 628 187.000000
E 10 78 193.000000
E 10 453 192.000000
E 10 623 201.000000
E 11 56 202.000000
E 11 331 205.000000
E 12 27 195.000000
E 12 252 204.000000
E 12 523 195.000000
E 14 222 189.000000
E 14 383 198.000000
E 14 409 199.000000
E 15 124 196.000000
E 15 236 203.000000
E 15 291 196.000000
E 15 365 203.000000
E 15 390 202.000000
E 15 399 192.000000
E 16 419 201.000000
E 17 24 296.000000
E 17 575 206.000000
E 18 219 201.000000
E 18 242 200.000000
E 18 254 206.000000
E 19 399 198.000000
E 19 418 192.000000
E 20 266 196.000000
E 21 94 198.000000
E 21 115 198.000000
E 21 121 202.000000
E 21 219 192.000000
E 21 585 199.000000
E 22 249 195.000000
E 22 330 198.000000
E 23 35 199.000000
E 23 258 206.000000
E 23 452 194.000000
E 24 144 201.000000
E 24 283 200.000000
E 25 167 198.000000
E 25 297 202.000000
E 26 591 103.000000
E 26 623 94.000000
E 27 289 103.000000
E 27 393 98.000000
E 27 633 99.000000
E 28 47 96.000000
E 28 380 107.000000
E 28 452 102.000000
E 29 70 97.000000
E 29 136 107.000000
E 29 213 111.000000
E 29 227 95.000000
E 29 319 101.000000
E 29 586 99.000000
E 30 203 104.000000
E 30 311 101.000000
E 30 344 106.000000
E 31 392 96.000000
E 31 559 102.000000
E 32 538 90.000000
E 32 632 104.000000
E 33 247 93.000000
E 33 333 89.000000
E 34 189 95.000000
E 34 339 95.000000
E 34 553 101.000000
E 34 588 110.000000
E 35 527 94.000000
E 36 102 96.000000
E 36 287 98.000000
E 36 504 94.000000
E 36 513 93.000000
E 37 177 100.000000
E 37 271 98.000000
E 37 387 97.000000
E 37 429 105.000000
E 37 506 92.000000
E 37 552 96.000000
E 37 580 95.000000
E 38 233 91.000000
E 38 265 101.000000
E 38 493 103.000000
E 38 498 100.000000
E 38 569 103.000000
E 39 323 107.000000
E 40 74 103.000000
E 40 181 94.000000
E 40 417 105.000000
E 40 449 101.000000
E 40 560 90.000000
E 40 610 105.000000
E 40 636 94.000000
E 41 456 98.000000
E 41 611 101.000000
E 42 97 114.000000
E 43 98 98.000000
E 43 493 101.000000
E 44 151 98.000000
E 44 292 100.000000
E 44 313 105.000000
E 45 70 91.000000
E 45 279 100.000000
E 45 383 101.000000
E 46 196 97.000000
E 46 435 105.000000
E 46 553 105.000000
E 46 627 100.000000
E 47 55 99.000000
E 47 474 94.000000
E 48 194 95.000000
E 48 219 102.000000
E 48 264 108.000000
E 48 510 102.000000
E 49 223 92.000000
E 49 491 95.000000
E 50 233 98.000000
E 50 345 102.000000
E 51 152 100.000000
E 51 196 102.000000
E 51 396 110.000000
E 51 498 105.000000
E 52 226 110.000000
E 52 297 94.000000
E 52 301 104.000000
E 53 108 101.000000
E 53 356 98.000000
E 53 634 93.000000
E 54 93 95.000000
E 54 210 97.000000
E 54 564 100.000000
E 55 73 84.000000
E 55 600 101.000000
E 56 162 91.000000
E 56 423 93.000000
E 56 462 99.000000
E 57 283 94.000000
E 57 288 94.000000
E 57 625 104.000000
E 58 349 96.000000
E 58 391 100.000000
E 58 448 101.000000
E 58 606 112.000000
E 59 66 101.000000
E 60 75 102.000000
E 61 471 103.000000
E 61 504 98.000000
E 61 535 95.000000
E 62 544 99.000000
E 63 315 105.000000
E 63 526 107.000000
E 63 542 95.000000
E 63 594 98.000000
E 63 640 102.000000
E 64 236 94.000000
E 65 200 96.000000
E 65 619 101.000000
E 66 158 103.000000
E 66 274 94.000000
E 66 286 105.000000
E 66 357 108.000000
E 66 408 98.000000
E 66 473 97.000000
E 66 589 100.000000
E 67 92 97.000000
E 67 446 98.000000
E 67 529 94.000000
E 68 378 105.000000
E 69 80 105.000000
E 69 165 108.000000
E 69 381 93.000000
E 69 441 91.000000
E 69 571 107.000000
E 71 111 99.000000
E 71 458 106.000000
E 72 482 97.000000
E 73 343 95.000000
E 73 368 103.000000
E 73 568 104.000000
E 73 614 100.000000
E 74 92 96.000000
E 74 103 98.000000
E 74 135 105.000000
E 74 251 99.000000
E 74 265 101.000000
E 74 296 98.000000
E 74 470 102.000000
E 74 491 93.000000
E 75 364 106.000000
E 75 499 101.000000
E 76 125 111.000000
E 76 222 102.000000
E 76 633 95.000000
E 77 151 110.000000
E 77 289 109.000000
E 77 528 100.000000
E 78 116 96.000000
E 78 137 92.000000
E 78 261 97.000000
E 78 326 97.000000
E 78 423 93.000000
E 79 85 100.000000
E 79 191 95.000000
E 79 415 99.000000
E 79 519 102.000000
E 79 583 97.000000
E 80 220 105.000000
E 80 302 102.000000
E 80 484 104.000000
E 81 125 104.000000
E 81 134 97.000000
E 81 274 97.000000
E 82 443 93.000000
E 83 441 100.000000
E 84 530 96.000000
E 85 116 93.000000
E 85 192 91.000000
E 85 215 98.000000
E 85 247 99.000000
E 85 281 92.000000
E 85 525 102.000000
E 85 526 107.000000
E 85 569 99.000000
E 86 407 99.000000
E 86 442 88.000000
E 87 231 104.000000
E 87 396 101.000000
E 87 638 96.000000
E 88 566 107.000000
E 89 458 101.000000
E 90 313 102.000000
E 90 382 101.000000
E 90 452 102.000000
E 90 591 98.000000
E 91 434 98.000000
E 91 473 97.000000
E 92 235 98.000000
E 92 316 99.000000
E 92 367 100.000000
E 92 563 100.000000
E 93 127 106.000000
E 93 150 99.000000
E 93 159 104.000000
E 93 601 100.000000
E 94 98 101.000000
E 94 364 102.000000
E 95 531 106.000000
E 96 188 98.000000
E 96 364 99.000000
E 96 630 100.000000
E 97 313 98.000000
E 97 615 105.000000
E 98 214 92.000000
E 98 413 103.000000
E 98 422 109.000000
E 98 457 112.000000
E 98 495 101.000000
E 98 562 98.000000
E 99 352 92.000000
E 99 567 103.000000
E 99 578 100.000000
E 100 447 100.000000
E 101 172 92.000000
E 101 177 101.000000
E 101 467 98.000000
E 101 509 103.000000
E 103 147 88.000000
E 103 200 105.000000
E 103 288 103.000000
E 104 135 100.000000
E 104 145 96.000000
E 104 275 100.000000
E 104 480 102.000000
E 104 514 100.000000
E 104 530 102.000000
E 104 582 97.000000
E 105 191 108.000000
E 105 426 93.000000
E 106 415 100.000000
E 106 638 102.000000
E 107 279 93.000000
E 107 373 102.000000
E 108 227 97.000000
E 108 363 102.000000
E 108 540 92.000000
E 109 235 95.000000
E 109 260 100.000000
E 109 596 95.000000
E 110 191 100.000000
E 111 400 100.000000
E 111 627 101.000000
E 112 383 104.000000
E 113 164 106.000000
E 113 179 96.000000
E 113 494 91.000000
E 114 126 92.000000
E 114 322 95.000000
E 114 377 104.000000
E 114 566 95.000000
E 115 450 107.000000
E 115 610 101.000000
E 116 363 104.000000
E 117 233 93.000000
E 117 348 106.000000
E 118 264 100.000000
E 118 318 110.000000
E 118 339 101.000000
E 118 480 97.000000
E 119 207 96.000000
E 120 527 87.000000
E 121 310 92.000000
E 121 464 109.000000
E 121 575 97.000000
E 122 500 106.000000
E 123 331 99.000000
E 124 202 95.000000
E 125 173 103.000000
E 125 607 101.000000
E 126 228 98.000000
E 126 304 103.000000
E 126 557 99.000000
E 127 175 96.000000
E 127 597 106.000000
E 128 557 107.000000
E 129 354 97.000000
E 129 542 98.000000
E 129 558 96.000000
E 130 220 113.000000
E 130 242 97.000000
E 130 265 90.000000
E 130 505 104.000000
E 130 542 96.000000
E 131 274 106.000000
E 132 261 100.000000
E 132 288 104.000000
E 132 421 104.000000
E 132 488 109.000000
E 132 590 97.000000
E 133 151 103.000000
E 133 212 104.000000
E 133 333 97.000000
E 133 519 103.000000
E 135 333 95.000000
E 135 384 92.000000
E 135 488 105.000000
E 136 149 99.000000
E 137 291 103.000000
E 137 315 104.000000
E 137 358 90.000000
E 138 632 101.000000
E 139 606 99.000000
E 140 151 96.000000
E 141 180 102.000000
E 142 608 102.000000
E 143 549 95.000000
E 144 377 92.000000
E 145 334 105.000000
E 146 525 100.000000
E 147 307 96.000000
E 147 439 93.000000
E 148 300 99.000000
E 148 539 107.000000
E 149 585 95.000000
E 150 190 106.000000
E 150 261 100.000000
E 150 319 93.000000
E 150 379 97.000000
E 150 526 102.000000
E 151 165 98.000000
E 151 428 103.000000
E 151 605 99.000000
E 152 356 99.000000
E 152 372 105.000000
E 152 389 92.000000
E 152 435 106.000000
E 152 572 106.000000
E 153 216 99.000000
E 153 452 104.000000
E 153 469 99.000000
E 154 601 92.000000
E 155 634 92.000000
E 156 421 97.000000
E 156 577 106.000000
E 158 318 100.000000
E 159 528 102.000000
E 160 309 82.000000
E 160 353 89.000000
E 161 466 90.000000
E 162 212 100.000000
E 162 436 89.000000
E 163 489 101.000000
E 164 370 98.000000
E 164 503 94.000000
E 165 187 104.000000
E 165 218 104.000000
E 165 317 106.000000
E 165 356 103.000000
E 166 224 102.000000
E 166 255 101.000000
E 166 500 105.000000
E 167 273 98.000000
E 167 487 104.000000
E 167 622 94.000000
E 168 238 109.000000
E 168 261 94.000000
E 168 630 98.000000
E 169 318 95.000000
E 169 337 100.000000
E 169 346 98.000000
E 169 548 101.000000
E 170 310 106.000000
E 171 173 93.000000
E 171 350 97.000000
E 171 511 96.000000
E 172 542 96.000000
E 173 392 99.000000
E 173 439 86.000000
E 173 454 90.000000
E 173 610 100.000000
E 174 610 99.000000
E 176 182 96.000000
E 176 523 105.000000
E 177 296 104.000000
E 177 311 93.000000
E 178 192 101.000000
E 178 203 100.000000
E 178 432 99.000000
E 178 579 100.000000
E 179 203 99.000000
E 179 312 97.000000
E 179 362 97.000000
E 179 584 98.000000
E 180 367 102.000000
E 181 338 90.000000
E 181 377 97.000000
E 182 186 97.000000
E 182 331 100.000000
E 182 414 103.000000
E 183 189 99.000000
E 183 537 100.000000
E 183 574 96.000000
E 184 450 100.000000
E 184 468 107.000000
E 184 472 103.000000
E 185 361 101.000000
E 185 381 99.000000
E 186 523 97.000000
E 187 245 108.000000
E 187 343 95.000000
E 187 391 105.000000
E 188 301 100.000000
E 188 426 97.000000
E 188 466 97.000000
E 188 520 100.000000
E 188 603 91.000000
E 189 426 98.000000
E 189 464 100.000000
E 189 577 98.000000
E 190 252 101.000000
E 190 364 100.000000
E 190 507 82.000000
E 191 582 103.000000
E 191 600 98.000000
E 191 639 93.000000
E 192 199 101.000000
E 192 230 102.000000
E 192 397 87.000000
E 192 561 102.000000
E 192 634 103.000000
E 193 211 105.000000
E 194 231 95.000000
E 195 209 98.000000
E 195 276 98.000000
E 195 534 103.000000
E 196 224 104.000000
E 196 246 101.000000
E 196 559 96.000000
E 197 588 100.000000
E 198 206 99.000000
E 198 452 101.000000
E 198 513 107.000000
E 199 385 97.000000
E 199 530 98.000000
E 200 203 100.000000
E 201 412 101.000000
E 202 637 99.000000
E 203 486 99.000000
E 204 404 105.000000
E 204 604 105.000000
E 205 238 91.000000
E 205 426 104.000000
E 205 521 95.000000
E 206 254 98.000000
E 206 296 102.000000
E 207 482 99.000000
E 207 501 99.000000
E 207 513 91.000000
E 207 535 101.000000
E 208 302 93.000000
E 209 332 99.000000
E 209 553 102.000000
E 210 573 99.000000
E 211 257 104.000000
E 211 340 94.000000
E 211 398 96.000000
E 213 366 95.000000
E 213 593 99.000000
E 214 452 105.000000
E 214 544 101.000000
E 215 613 104.000000
E 216 317 105.000000
E 216 326 95.000000
E 216 371 104.000000
E 216 520 93.000000
E 216 540 96.000000
E 216 622 101.000000
E 217 288 112.000000
E 218 262 103.000000
E 218 378 103.000000
E 218 617 100.000000
E 219 487 93.000000
E 221 353 95.000000
E 223 244 99.000000
E 223 441 100.000000
E 224 368 106.000000
E 224 552 95.000000
E 224 639 105.000000
E 225 452 93.000000
E 226 284 99.000000
E 226 377 90.000000
E 226 551 105.000000
E 227 474 106.000000
E 228 309 96.000000
E 228 482 100.000000
E 229 540 99.000000
E 231 425 103.000000
E 231 555 96.000000
E 232 357 107.000000
E 234 255 100.000000
E 234 336 95.000000
E 234 556 103.000000
E 235 236 98.000000
E 235 374 96.000000
E 235 473 94.000000
E 235 592 104.000000
E 236 257 99.000000
E 236 290 97.000000
E 236 311 95.000000
E 237 313 101.000000
E 238 583 97.000000
E 239 444 97.000000
E 239 497 105.000000
E 239 524 101.000000
E 239 609 96.000000
E 239 638 91.000000
E 240 372 107.000000
E 240 403 98.000000
E 241 483 97.000000
E 242 394 99.000000
E 242 538 96.000000
E 243 258 96.000000
E 245 305 110.000000
E 246 621 97.000000
E 248 386 98.000000
E 249 551 89.000000
E 249 556 103.000000
E 250 256 98.000000
E 250 479 104.000000
E 251 440 102.000000
E 251 504 98.000000
E 251 576 99.000000
E 251 607 104.000000
E 252 361 96.000000
E 252 508 100.000000
E 253 309 99.000000
E 253 311 113.000000
E 255 396 104.000000
E 256 566 80.000000
E 257 467 98.000000
E 258 342 99.000000
E 258 477 104.000000
E 258 520 111.000000
E 259 582 93.000000
E 260 632 105.000000
E 261 532 100.000000
E 261 544 102.000000
E 263 296 100.000000
E 263 387 102.000000
E 264 551 97.000000
E 265 425 91.000000
E 265 630 109.000000
E 266 274 99.000000
E 266 380 96.000000
E 266 537 99.000000
E 267 301 101.000000
E 267 326 103.000000
E 268 344 106.000000
E 268 632 102.000000
E 269 337 92.000000
E 269 464 99.000000
E 269 476 99.000000
E 269 536 105.000000
E 269 597 107.000000
E 270 469 105.000000
E 270 489 104.000000
E 270 550 101.000000
E 271 363 96.000000
E 272 288 101.000000
E 273 337 103.000000
E 273 608 95.000000
E 274 389 91.000000
E 274 456 104.000000
E 274 467 107.000000
E 274 477 92.000000
E 274 515 90.000000
E 277 395 100.000000
E 278 563 105.000000
E 278 622 109.000000
E 279 327 105.000000
E 279 366 98.000000
E 279 368 100.000000
E 279 405 91.000000
E 280 426 101.000000
E 280 584 97.000000
E 281 628 103.000000
E 282 535 103.000000
E 285 365 92.000000
E 286 529 101.000000
E 287 365 98.000000
E 288 293 92.000000
E 288 427 105.000000
E 290 447 103.000000
E 290 513 100.000000
E 291 550 96.000000
E 292 466 106.000000
E 293 594 97.000000
E 294 428 105.000000
E 295 366 102.000000
E 295 503 91.000000
E 296 527 96.000000
E 297 317 92.000000
E 298 456 104.000000
E 299 304 98.000000
E 300 559 102.000000
E 302 327 98.000000
E 302 525 103.000000
E 303 315 102.000000
E 303 412 97.000000
E 303 544 97.000000
E 303 623 98.000000
E 304 335 105.000000
E 304 344 94.000000
E 304 370 103.000000
E 304 597 103.000000
E 305 566 98.000000
E 306 341 102.000000
E 306 475 105.000000
E 307 550 109.000000
E 307 587 103.000000
E 308 410 107.000000
E 308 456 102.000000
E 309 359 107.000000
E 309 564 103.000000
E 309 602 102.000000
E 311 397 106.000000
E 311 533 94.000000
E 313 530 98.000000
E 313 624 102.000000
E 314 499 92.000000
E 316 447 101.000000
E 316 518 104.000000
E 316 621 103.000000
E 318 472 96.000000
E 319 370 101.000000
E 319 386 109.000000
E 320 432 96.000000
E 320 582 90.000000
E 321 568 85.000000
E 321 621 95.000000
E 323 337 95.000000
E 323 587 99.000000
E 323 616 90.000000
E 324 357 103.000000
E 324 495 85.000000
E 324 568 104.000000
E 325 377 100.000000
E 325 478 99.000000
E 327 345 114.000000
E 327 531 105.000000
E 328 453 95.000000
E 329 472 98.000000
E 330 623 109.000000
E 331 368 100.000000
E 331 484 102.000000
E 331 494 102.000000
E 334 400 100.000000
E 334 406 103.000000
E 334 459 94.000000
E 334 631 99.000000
E 337 390 104.000000
E 337 581 96.000000
E 337 623 99.000000
E 338 533 92.000000
E 338 592 100.000000
E 339 376 101.000000
E 339 515 101.000000
E 342 355 94.000000
E 342 404 103.000000
E 342 485 98.000000
E 342 532 110.000000
E 344 489 100.000000
E 345 449 104.000000
E 345 575 98.000000
E 347 367 102.000000
E 348 411 100.000000
E 348 464 94.000000
E 349 383 100.000000
E 350 367 96.000000
E 350 634 105.000000
E 351 370 96.000000
E 352 370 104.000000
E 352 458 95.000000
E 353 499 107.000000
E 355 495 95.000000
E 356 368 99.000000
E 356 500 96.000000
E 356 570 100.000000
E 357 385 113.000000
E 357 521 106.000000
E 357 543 104.000000
E 357 553 111.000000
E 357 588 98.000000
E 357 614 95.000000
E 358 542 102.000000
E 359 401 103.000000
E 360 460 95.000000
E 362 396 99.000000
E 363 604 99.000000
E 364 382 108.000000
E 364 390 95.000000
E 366 639 96.000000
E 368 499 114.000000
E 368 503 92.000000
E 368 564 104.000000
E 368 608 100.000000
E 369 375 97.000000
E 369 460 98.000000
E 369 527 104.000000
E 370 401 100.000000
E 370 542 98.000000
E 370 590 99.000000
E 370 629 99.000000
E 371 458 97.000000
E 373 540 96.000000
E 376 461 88.000000
E 376 514 110.000000
E 379 572 101.000000
E 380 431 104.000000
E 382 544 95.000000
E 382 573 102.000000
E 383 438 95.000000
E 385 416 100.000000
E 385 547 104.000000
E 385 623 105.000000
E 387 505 103.000000
E 387 541 105.000000
E 388 401 97.000000
E 389 505 102.000000
E 389 620 100.000000
E 390 553 104.000000
E 391 604 93.000000
E 392 458 101.000000
E 392 503 102.000000
E 392 586 90.000000
E 392 587 91.000000
E 392 605 99.000000
E 393 576 104.000000
E 395 441 99.000000
E 395 489 91.000000
E 396 622 108.000000
E 397 465 96.000000
E 398 441 99.000000
E 398 590 100.000000
E 401 417 100.000000
E 401 480 96.000000
E 402 486 96.000000
E 402 487 95.000000
E 402 631 102.000000
E 403 513 92.000000
E 404 465 96.000000
E 406 419 106.000000
E 406 579 110.000000
E 407 448 106.000000
E 407 456 94.000000
E 407 468 99.000000
E 407 563 100.000000
E 408 455 110.000000
E 409 463 101.000000
E 410 424 88.000000
E 411 442 93.000000
E 411 570 96.000000
E 412 534 105.000000
E 414 554 97.000000
E 414 575 95.000000
E 418 548 103.000000
E 419 463 97.000000
E 419 566 100.000000
E 419 599 105.000000
E 420 484 101.000000
E 422 478 105.000000
E 424 446 99.000000
E 424 488 109.000000
E 425 479 101.000000
E 425 496 102.000000
E 425 598 103.000000
E 426 530 95.000000
E 429 479 90.000000
E 429 488 105.000000
E 429 516 91.000000
E 429 537 105.000000
E 430 564 97.000000
E 432 494 97.000000
E 433 508 94.000000
E 436 509 104.000000
E 437 488 92.000000
E 437 504 105.000000
E 438 528 102.000000
E 440 524 104.000000
E 440 582 102.000000
E 440 588 102.000000
E 441 500 99.000000
E 442 548 97.000000
E 442 616 96.000000
E 443 540 92.000000
E 444 582 103.000000
E 445 591 99.000000
E 446 478 99.000000
E 446 535 98.000000
E 449 535 93.000000
E 451 457 90.000000
E 452 567 101.000000
E 452 604 98.000000
E 454 590 109.000000
E 456 549 99.000000
E 456 623 101.000000
E 458 514 95.000000
E 458 541 101.000000
E 458 552 98.000000
E 459 543 99.000000
E 459 635 105.000000
E 460 509 96.000000
E 462 477 101.000000
E 462 517 99.000000
E 464 531 100.000000
E 464 534 96.000000
E 466 530 97.000000
E 469 491 102.000000
E 469 601 94.000000
E 470 618 100.000000
E 471 524 95.000000
E 471 564 107.000000
E 473 512 99.000000
E 473 626 103.000000
E 474 581 98.000000
E 474 632 104.000000
E 475 503 94.000000
E 475 612 92.000000
E 476 551 93.000000
E 476 574 94.000000
E 476 619 96.000000
E 478 510 105.000000
E 479 490 99.000000
E 479 627 96.000000
E 481 519 97.000000
E 483 504 105.000000
E 486 538 103.000000
E 486 553 97.000000
E 487 614 95.000000
E 487 617 101.000000
E 488 601 93.000000
E 490 581 101.000000
E 490 584 96.000000
E 492 582 105.000000
E 492 629 97.000000
E 493 564 101.000000
E 495 550 96.000000
E 496 609 97.000000
E 497 558 107.000000
E 502 595 109.000000
E 502 640 100.000000
E 503 547 101.000000
E 503 550 95.000000
E 503 575 95.000000
E 503 621 98.000000
E 503 632 99.000000
E 504 604 98.000000
E 508 535 90.000000
E 508 545 99.000000
E 508 579 110.000000
E 508 593 97.000000
E 513 572 99.000000
E 513 601 94.000000
E 515 555 106.000000
E 516 601 101.000000
E 522 628 108.000000
E 524 582 102.000000
E 524 622 94.000000
E 528 631 101.000000
E 530 638 106.000000
E 531 550 111.000000
E 534 542 102.000000
E 535 551 91.000000
E 538 623 93.000000
E 543 631 98.000000
E 544 607 97.000000
E 546 605 94.000000
E 552 576 99.000000
E 559 564 96.000000
E 559 565 97.000000
E 559 586 99.000000
E 560 574 99.000000
E 566 592 105.000000
E 569 630 92.000000
E 579 627 95.000000
E 599 623 96.000000
E 607 637 95.000000
E 616 636 104.000000
END

SECTION Terminals
Terminals 25
TP 1 576.000000
TP 2 768.000000
TP 3 328.000000
TP 4 368.000000
TP 5 620.000000
TP 6 856.000000
TP 7 424.000000
TP 8 268.000000
TP 9 1104.000000
TP 10 832.000000
TP 11 348.000000
TP 12 952.000000
TP 13 528.000000
TP 14 36.000000
TP 15 620.000000
TP 16 540.000000
TP 17 1156.000000
TP 18 56.000000
TP 19 320.000000
TP 20 1136.000000
TP 21 1100.000000
TP 22 736.000000
TP 23 272.000000
TP 24 156.000000
TP 25 280.000000
END

EOF
